unsat
(:SPACER-conj                         1
 :SPACER-expand-pob-undef             13
 :SPACER-inductive-gen                34
 :SPACER-inductive-gen-weaken-fail    50
 :SPACER-inductive-gen-weaken-success 11
 :SPACER-inductive-level              3
 :SPACER-max-depth                    5
 :SPACER-max-query-lvl                5
 :SPACER-non-local-gen                2
 :SPACER-num-active-lemmas            8
 :SPACER-num-ctp-blocked              10
 :SPACER-num-invariants               16
 :SPACER-num-is_invariant             58
 :SPACER-num-lemma-jumped             8
 :SPACER-num-lemmas                   34
 :SPACER-num-pobs                     26
 :SPACER-num-propagations             30
 :SPACER-num-queries                  33
 :SPACER-num-reach-queries            7
 :SPACER-num-reuse-reach-facts        6
 :SPACER-subsume-pob                  5
 :SPACER-subsume-success              13
 :added-eqs                           16262
 :arith-assert-diseq                  5516
 :arith-assert-lower                  12116
 :arith-assert-upper                  10794
 :arith-bound-prop                    1458
 :arith-branch-var                    24
 :arith-conflicts                     148
 :arith-eq-adapter                    2206
 :arith-fixed-eqs                     3660
 :arith-gcd-conflicts                 56
 :arith-gcd-tests                     302
 :arith-gomory-cuts                   4
 :arith-ineq-splits                   24
 :arith-num-rows                      66
 :arith-offset-eqs                    1042
 :arith-patches                       46
 :arith-patches_succ                  14
 :arith-pivots                        1246
 :arith-row-summations                6914
 :arith-tableau-max-columns           136
 :arith-tableau-max-rows              66
 :conflicts                           752
 :decisions                           11522
 :del-clause                          5330
 :final-checks                        338
 :iuc_solver.num_proxies              88
 :max-memory                          32.79
 :memory                              32.15
 :minimized-lits                      344
 :mk-bool-var                         7170
 :mk-clause                           7318
 :num-allocs                          43071953
 :num-checks                          566
 :pool_solver.checks                  283
 :pool_solver.checks.sat              81
 :pool_solver.checks.undef            45
 :propagations                        51610
 :rlimit-count                        260961
 :time                                0.27
 :time.iuc_solver.get_iuc             0.03
 :time.iuc_solver.get_iuc.hyp_reduce1 0.01
 :time.iuc_solver.get_iuc.hyp_reduce2 0.01
 :time.iuc_solver.get_iuc.learn_core  0.00
 :time.pool_solver.proof              0.01
 :time.pool_solver.smt.total          0.14
 :time.pool_solver.smt.total.sat      0.05
 :time.pool_solver.smt.total.undef    0.02
 :time.spacer.init_rules              0.00
 :time.spacer.mbp                     0.01
 :time.spacer.solve                   0.25
 :time.spacer.solve.propagate         0.02
 :time.spacer.solve.reach             0.22
 :time.spacer.solve.reach.children    0.01
 :time.spacer.solve.reach.cluster     0.01
 :time.spacer.solve.reach.gen.global  0.02
 :time.spacer.solve.reach.gen.ind     0.05
 :time.spacer.solve.reach.is-reach    0.01)
(:max-memory   32.79
 :memory       32.15
 :num-allocs   43071953
 :rlimit-count 260961
 :time         0.27
 :total-time   0.29)
